c "54886.clq"
p edge 254 3808
e 1 17
e 1 18
e 1 20
e 1 22
e 1 24
e 1 25
e 1 26
e 1 28
e 1 30
e 1 31
e 1 34
e 1 36
e 1 39
e 1 41
e 1 44
e 1 57
e 1 58
e 1 61
e 1 62
e 1 72
e 1 85
e 1 94
e 1 95
e 1 105
e 1 114
e 1 116
e 1 119
e 1 161
e 1 167
e 1 224
e 1 243
e 2 17
e 2 18
e 2 19
e 2 20
e 2 21
e 2 23
e 2 24
e 2 25
e 2 26
e 2 27
e 2 28
e 2 29
e 2 32
e 2 36
e 2 39
e 2 42
e 2 43
e 2 47
e 2 48
e 2 52
e 2 53
e 2 54
e 2 55
e 2 57
e 2 58
e 2 59
e 2 61
e 2 64
e 2 66
e 2 71
e 2 72
e 2 73
e 2 75
e 2 87
e 2 91
e 2 95
e 2 96
e 2 113
e 2 114
e 2 122
e 2 130
e 2 131
e 2 132
e 2 139
e 2 141
e 2 147
e 2 150
e 2 157
e 2 160
e 2 170
e 2 173
e 2 177
e 2 183
e 2 188
e 2 195
e 2 206
e 2 215
e 2 228
e 2 238
e 2 240
e 2 241
e 3 17
e 3 18
e 3 19
e 3 20
e 3 21
e 3 23
e 3 24
e 3 26
e 3 29
e 3 30
e 3 31
e 3 34
e 3 35
e 3 37
e 3 42
e 3 47
e 3 53
e 3 55
e 3 61
e 3 67
e 3 68
e 3 92
e 3 97
e 3 105
e 3 106
e 3 111
e 3 124
e 3 125
e 3 130
e 3 131
e 3 152
e 3 178
e 3 180
e 3 187
e 3 195
e 3 204
e 3 205
e 3 246
e 3 249
e 3 251
e 4 17
e 4 18
e 4 19
e 4 20
e 4 21
e 4 22
e 4 23
e 4 25
e 4 27
e 4 32
e 4 34
e 4 36
e 4 37
e 4 38
e 4 39
e 4 40
e 4 44
e 4 45
e 4 51
e 4 54
e 4 66
e 4 74
e 4 75
e 4 82
e 4 93
e 4 101
e 4 103
e 4 108
e 4 111
e 4 112
e 4 123
e 4 134
e 4 137
e 4 140
e 4 144
e 4 154
e 4 161
e 4 162
e 4 173
e 4 179
e 4 190
e 4 194
e 4 197
e 4 203
e 4 213
e 4 233
e 4 238
e 4 253
e 5 17
e 5 18
e 5 19
e 5 21
e 5 22
e 5 23
e 5 25
e 5 26
e 5 28
e 5 29
e 5 31
e 5 32
e 5 33
e 5 34
e 5 36
e 5 37
e 5 40
e 5 41
e 5 44
e 5 48
e 5 51
e 5 52
e 5 53
e 5 54
e 5 57
e 5 63
e 5 65
e 5 67
e 5 78
e 5 85
e 5 86
e 5 88
e 5 93
e 5 94
e 5 101
e 5 102
e 5 108
e 5 109
e 5 110
e 5 111
e 5 115
e 5 122
e 5 123
e 5 128
e 5 129
e 5 154
e 5 162
e 5 180
e 5 189
e 5 199
e 5 201
e 5 204
e 5 208
e 5 209
e 5 213
e 5 217
e 5 223
e 5 227
e 5 247
e 6 17
e 6 18
e 6 19
e 6 20
e 6 21
e 6 22
e 6 26
e 6 29
e 6 30
e 6 31
e 6 49
e 6 51
e 6 58
e 6 71
e 6 101
e 6 111
e 6 118
e 6 140
e 6 207
e 6 233
e 7 17
e 7 18
e 7 19
e 7 20
e 7 21
e 7 23
e 7 24
e 7 26
e 7 27
e 7 29
e 7 32
e 7 33
e 7 34
e 7 37
e 7 38
e 7 39
e 7 41
e 7 42
e 7 49
e 7 51
e 7 77
e 7 86
e 7 87
e 7 89
e 7 97
e 7 99
e 7 103
e 7 104
e 7 106
e 7 107
e 7 114
e 7 122
e 7 126
e 7 142
e 7 151
e 7 158
e 7 183
e 7 190
e 7 195
e 7 201
e 7 206
e 7 208
e 7 243
e 7 248
e 8 17
e 8 18
e 8 19
e 8 20
e 8 21
e 8 25
e 8 26
e 8 27
e 8 30
e 8 32
e 8 40
e 8 41
e 8 54
e 8 60
e 8 63
e 8 69
e 8 81
e 8 91
e 8 102
e 8 121
e 8 122
e 8 124
e 8 128
e 8 154
e 8 168
e 8 201
e 8 209
e 8 211
e 8 218
e 8 221
e 8 234
e 9 17
e 9 18
e 9 19
e 9 20
e 9 21
e 9 22
e 9 24
e 9 25
e 9 26
e 9 27
e 9 28
e 9 31
e 9 36
e 9 40
e 9 43
e 9 50
e 9 51
e 9 54
e 9 56
e 9 65
e 9 68
e 9 82
e 9 83
e 9 107
e 9 120
e 9 126
e 9 156
e 9 157
e 9 165
e 9 177
e 9 186
e 9 199
e 9 217
e 9 226
e 9 244
e 9 253
e 10 17
e 10 18
e 10 19
e 10 22
e 10 24
e 10 25
e 10 26
e 10 28
e 10 30
e 10 33
e 10 35
e 10 38
e 10 42
e 10 43
e 10 46
e 10 47
e 10 48
e 10 49
e 10 62
e 10 65
e 10 66
e 10 71
e 10 74
e 10 82
e 10 83
e 10 84
e 10 89
e 10 97
e 10 102
e 10 110
e 10 111
e 10 122
e 10 125
e 10 128
e 10 131
e 10 143
e 10 152
e 10 157
e 10 166
e 10 174
e 10 179
e 10 180
e 10 185
e 10 193
e 10 195
e 10 200
e 10 205
e 10 207
e 10 227
e 10 229
e 10 235
e 10 245
e 10 246
e 10 249
e 10 251
e 10 254
e 11 17
e 11 20
e 11 25
e 11 27
e 11 60
e 11 98
e 11 105
e 11 197
e 11 202
e 11 228
e 12 17
e 12 18
e 12 19
e 12 21
e 12 22
e 12 23
e 12 26
e 12 28
e 12 29
e 12 30
e 12 32
e 12 34
e 12 37
e 12 43
e 12 48
e 12 51
e 12 55
e 12 56
e 12 60
e 12 61
e 12 68
e 12 69
e 12 72
e 12 76
e 12 86
e 12 91
e 12 95
e 12 98
e 12 100
e 12 109
e 12 120
e 12 129
e 12 139
e 12 150
e 12 162
e 12 174
e 12 183
e 12 188
e 12 196
e 12 214
e 12 215
e 12 219
e 12 220
e 12 252
e 13 17
e 13 18
e 13 19
e 13 20
e 13 22
e 13 23
e 13 24
e 13 25
e 13 26
e 13 27
e 13 28
e 13 31
e 13 43
e 13 46
e 13 50
e 13 57
e 13 59
e 13 64
e 13 69
e 13 75
e 13 80
e 13 105
e 13 117
e 13 127
e 13 132
e 13 137
e 13 142
e 13 145
e 13 147
e 13 148
e 13 155
e 13 156
e 13 166
e 13 169
e 13 172
e 13 197
e 13 200
e 13 223
e 13 235
e 13 241
e 13 242
e 14 17
e 14 18
e 14 19
e 14 20
e 14 21
e 14 22
e 14 23
e 14 26
e 14 28
e 14 29
e 14 30
e 14 35
e 14 37
e 14 43
e 14 50
e 14 51
e 14 60
e 14 66
e 14 67
e 14 70
e 14 88
e 14 99
e 14 103
e 14 110
e 14 113
e 14 116
e 14 123
e 14 140
e 14 141
e 14 144
e 14 147
e 14 149
e 14 156
e 14 161
e 14 164
e 14 171
e 14 181
e 14 190
e 14 193
e 14 201
e 14 202
e 14 206
e 14 218
e 14 237
e 14 242
e 14 243
e 14 248
e 14 252
e 14 254
e 15 17
e 15 18
e 15 19
e 15 20
e 15 21
e 15 22
e 15 23
e 15 24
e 15 25
e 15 27
e 15 31
e 15 32
e 15 33
e 15 34
e 15 38
e 15 42
e 15 45
e 15 46
e 15 49
e 15 50
e 15 51
e 15 52
e 15 53
e 15 54
e 15 55
e 15 60
e 15 64
e 15 65
e 15 66
e 15 68
e 15 69
e 15 73
e 15 102
e 15 120
e 15 125
e 15 126
e 15 131
e 15 134
e 15 138
e 15 141
e 15 160
e 15 161
e 15 177
e 15 181
e 15 208
e 15 222
e 15 231
e 15 250
e 16 17
e 16 18
e 16 19
e 16 20
e 16 21
e 16 22
e 16 23
e 16 24
e 16 25
e 16 33
e 16 34
e 16 35
e 16 39
e 16 43
e 16 52
e 16 57
e 16 59
e 16 61
e 16 63
e 16 72
e 16 74
e 16 79
e 16 82
e 16 84
e 16 103
e 16 113
e 16 121
e 16 127
e 16 129
e 16 135
e 16 136
e 16 142
e 16 147
e 16 148
e 16 154
e 16 169
e 16 170
e 16 174
e 16 191
e 16 197
e 16 199
e 16 202
e 16 208
e 16 224
e 16 230
e 16 253
e 17 18
e 17 19
e 17 20
e 17 21
e 17 22
e 17 23
e 17 24
e 17 26
e 17 27
e 17 28
e 17 29
e 17 30
e 17 31
e 17 32
e 17 33
e 17 34
e 17 36
e 17 37
e 17 40
e 17 41
e 17 44
e 17 45
e 17 46
e 17 47
e 17 48
e 17 49
e 17 52
e 17 53
e 17 54
e 17 55
e 17 56
e 17 57
e 17 58
e 17 59
e 17 61
e 17 62
e 17 64
e 17 72
e 17 73
e 17 74
e 17 76
e 17 77
e 17 80
e 17 83
e 17 86
e 17 88
e 17 90
e 17 94
e 17 95
e 17 96
e 17 98
e 17 100
e 17 105
e 17 106
e 17 107
e 17 109
e 17 124
e 17 130
e 17 132
e 17 133
e 17 137
e 17 139
e 17 141
e 17 143
e 17 145
e 17 150
e 17 153
e 17 154
e 17 160
e 17 174
e 17 176
e 17 177
e 17 180
e 17 185
e 17 186
e 17 191
e 17 192
e 17 199
e 17 207
e 17 209
e 17 210
e 17 221
e 17 226
e 17 227
e 17 243
e 17 244
e 17 249
e 18 19
e 18 20
e 18 21
e 18 22
e 18 23
e 18 24
e 18 29
e 18 30
e 18 31
e 18 32
e 18 33
e 18 35
e 18 36
e 18 37
e 18 41
e 18 42
e 18 44
e 18 46
e 18 48
e 18 49
e 18 51
e 18 55
e 18 56
e 18 57
e 18 59
e 18 60
e 18 61
e 18 62
e 18 63
e 18 64
e 18 66
e 18 68
e 18 69
e 18 70
e 18 74
e 18 75
e 18 76
e 18 77
e 18 81
e 18 86
e 18 87
e 18 88
e 18 89
e 18 90
e 18 91
e 18 94
e 18 96
e 18 97
e 18 107
e 18 109
e 18 113
e 18 115
e 18 117
e 18 118
e 18 119
e 18 130
e 18 131
e 18 141
e 18 149
e 18 151
e 18 157
e 18 164
e 18 169
e 18 170
e 18 174
e 18 181
e 18 187
e 18 188
e 18 197
e 18 198
e 18 200
e 18 202
e 18 210
e 18 211
e 18 212
e 18 216
e 18 221
e 18 231
e 18 233
e 18 235
e 18 236
e 18 237
e 18 239
e 18 241
e 18 247
e 18 253
e 19 20
e 19 21
e 19 22
e 19 23
e 19 24
e 19 25
e 19 26
e 19 28
e 19 29
e 19 30
e 19 31
e 19 33
e 19 35
e 19 37
e 19 38
e 19 39
e 19 45
e 19 46
e 19 47
e 19 52
e 19 54
e 19 55
e 19 57
e 19 59
e 19 60
e 19 61
e 19 65
e 19 69
e 19 70
e 19 74
e 19 75
e 19 77
e 19 78
e 19 79
e 19 80
e 19 82
e 19 83
e 19 84
e 19 85
e 19 87
e 19 89
e 19 92
e 19 93
e 19 95
e 19 96
e 19 99
e 19 103
e 19 105
e 19 106
e 19 107
e 19 113
e 19 114
e 19 116
e 19 117
e 19 120
e 19 121
e 19 127
e 19 142
e 19 150
e 19 158
e 19 162
e 19 171
e 19 177
e 19 178
e 19 182
e 19 204
e 19 210
e 19 215
e 19 222
e 19 225
e 19 235
e 19 237
e 20 21
e 20 22
e 20 23
e 20 24
e 20 25
e 20 26
e 20 27
e 20 28
e 20 29
e 20 30
e 20 31
e 20 32
e 20 35
e 20 36
e 20 37
e 20 38
e 20 39
e 20 41
e 20 42
e 20 46
e 20 47
e 20 48
e 20 49
e 20 52
e 20 54
e 20 55
e 20 63
e 20 64
e 20 66
e 20 70
e 20 72
e 20 75
e 20 77
e 20 79
e 20 87
e 20 88
e 20 94
e 20 96
e 20 98
e 20 100
e 20 106
e 20 108
e 20 109
e 20 113
e 20 116
e 20 117
e 20 124
e 20 126
e 20 127
e 20 129
e 20 135
e 20 136
e 20 138
e 20 142
e 20 143
e 20 144
e 20 147
e 20 149
e 20 154
e 20 157
e 20 162
e 20 163
e 20 171
e 20 177
e 20 178
e 20 181
e 20 184
e 20 185
e 20 188
e 20 189
e 20 197
e 20 198
e 20 204
e 20 208
e 20 215
e 20 219
e 20 224
e 20 225
e 20 231
e 20 240
e 20 245
e 20 249
e 20 250
e 21 22
e 21 23
e 21 24
e 21 25
e 21 27
e 21 28
e 21 29
e 21 31
e 21 33
e 21 34
e 21 35
e 21 36
e 21 37
e 21 38
e 21 39
e 21 41
e 21 42
e 21 43
e 21 45
e 21 46
e 21 49
e 21 50
e 21 53
e 21 57
e 21 60
e 21 61
e 21 67
e 21 76
e 21 79
e 21 85
e 21 88
e 21 89
e 21 97
e 21 104
e 21 105
e 21 106
e 21 110
e 21 114
e 21 126
e 21 128
e 21 129
e 21 130
e 21 148
e 21 151
e 21 165
e 21 168
e 21 173
e 21 189
e 21 206
e 21 209
e 21 213
e 21 221
e 21 230
e 21 253
e 22 23
e 22 24
e 22 25
e 22 27
e 22 28
e 22 30
e 22 31
e 22 33
e 22 34
e 22 35
e 22 36
e 22 39
e 22 40
e 22 42
e 22 43
e 22 44
e 22 45
e 22 47
e 22 48
e 22 49
e 22 52
e 22 53
e 22 56
e 22 57
e 22 59
e 22 61
e 22 64
e 22 65
e 22 70
e 22 71
e 22 72
e 22 78
e 22 79
e 22 81
e 22 82
e 22 86
e 22 89
e 22 92
e 22 93
e 22 95
e 22 99
e 22 101
e 22 103
e 22 104
e 22 106
e 22 108
e 22 109
e 22 114
e 22 115
e 22 116
e 22 118
e 22 123
e 22 125
e 22 132
e 22 137
e 22 141
e 22 145
e 22 146
e 22 148
e 22 152
e 22 153
e 22 154
e 22 159
e 22 166
e 22 169
e 22 170
e 22 178
e 22 181
e 22 184
e 22 195
e 22 198
e 22 200
e 22 210
e 22 212
e 22 214
e 22 226
e 22 245
e 22 246
e 22 252
e 23 24
e 23 25
e 23 27
e 23 28
e 23 29
e 23 31
e 23 34
e 23 35
e 23 37
e 23 40
e 23 41
e 23 43
e 23 44
e 23 45
e 23 46
e 23 47
e 23 52
e 23 58
e 23 60
e 23 62
e 23 63
e 23 65
e 23 68
e 23 69
e 23 72
e 23 74
e 23 81
e 23 84
e 23 87
e 23 88
e 23 90
e 23 101
e 23 102
e 23 103
e 23 105
e 23 109
e 23 115
e 23 121
e 23 131
e 23 139
e 23 140
e 23 145
e 23 146
e 23 148
e 23 158
e 23 161
e 23 165
e 23 172
e 23 188
e 23 193
e 23 197
e 23 205
e 23 211
e 23 220
e 23 221
e 23 230
e 23 232
e 23 234
e 23 235
e 23 237
e 23 238
e 23 243
e 23 245
e 24 26
e 24 27
e 24 31
e 24 32
e 24 33
e 24 34
e 24 35
e 24 38
e 24 39
e 24 40
e 24 42
e 24 44
e 24 46
e 24 55
e 24 56
e 24 58
e 24 59
e 24 60
e 24 62
e 24 63
e 24 64
e 24 67
e 24 68
e 24 71
e 24 74
e 24 76
e 24 83
e 24 91
e 24 95
e 24 96
e 24 97
e 24 100
e 24 101
e 24 102
e 24 112
e 24 114
e 24 119
e 24 136
e 24 139
e 24 145
e 24 147
e 24 160
e 24 174
e 24 183
e 24 184
e 24 194
e 24 199
e 24 207
e 24 211
e 24 212
e 24 231
e 24 244
e 25 27
e 25 28
e 25 29
e 25 30
e 25 32
e 25 33
e 25 34
e 25 35
e 25 36
e 25 37
e 25 38
e 25 42
e 25 45
e 25 49
e 25 50
e 25 51
e 25 53
e 25 56
e 25 57
e 25 58
e 25 60
e 25 65
e 25 66
e 25 70
e 25 71
e 25 74
e 25 76
e 25 82
e 25 83
e 25 87
e 25 93
e 25 97
e 25 100
e 25 101
e 25 110
e 25 112
e 25 116
e 25 123
e 25 125
e 25 127
e 25 135
e 25 136
e 25 151
e 25 159
e 25 164
e 25 172
e 25 173
e 25 175
e 25 187
e 25 191
e 25 196
e 25 233
e 25 250
e 26 27
e 26 28
e 26 29
e 26 30
e 26 31
e 26 32
e 26 33
e 26 34
e 26 35
e 26 38
e 26 40
e 26 41
e 26 42
e 26 43
e 26 44
e 26 48
e 26 55
e 26 63
e 26 70
e 26 73
e 26 75
e 26 76
e 26 77
e 26 78
e 26 80
e 26 84
e 26 94
e 26 96
e 26 102
e 26 103
e 26 108
e 26 115
e 26 120
e 26 121
e 26 129
e 26 134
e 26 141
e 26 183
e 26 188
e 26 208
e 26 212
e 26 214
e 26 218
e 26 222
e 26 228
e 26 232
e 26 238
e 27 30
e 27 32
e 27 33
e 27 34
e 27 35
e 27 37
e 27 38
e 27 49
e 27 56
e 27 58
e 27 64
e 27 67
e 27 68
e 27 73
e 27 81
e 27 102
e 27 108
e 27 120
e 27 121
e 27 129
e 27 138
e 27 140
e 27 146
e 27 149
e 27 151
e 27 152
e 27 162
e 27 172
e 27 179
e 27 204
e 27 217
e 27 233
e 27 249
e 27 253
e 28 29
e 28 38
e 28 39
e 28 40
e 28 41
e 28 44
e 28 45
e 28 48
e 28 49
e 28 50
e 28 51
e 28 52
e 28 56
e 28 57
e 28 59
e 28 62
e 28 63
e 28 66
e 28 67
e 28 69
e 28 73
e 28 77
e 28 79
e 28 85
e 28 88
e 28 90
e 28 93
e 28 103
e 28 106
e 28 113
e 28 117
e 28 135
e 28 139
e 28 159
e 28 160
e 28 165
e 28 171
e 28 176
e 28 181
e 28 186
e 28 187
e 28 191
e 28 192
e 28 194
e 28 206
e 28 207
e 28 232
e 28 244
e 28 247
e 28 251
e 28 252
e 28 254
e 29 30
e 29 32
e 29 39
e 29 40
e 29 42
e 29 43
e 29 44
e 29 46
e 29 47
e 29 48
e 29 54
e 29 60
e 29 63
e 29 66
e 29 67
e 29 74
e 29 75
e 29 80
e 29 83
e 29 86
e 29 90
e 29 93
e 29 95
e 29 97
e 29 107
e 29 110
e 29 118
e 29 127
e 29 132
e 29 141
e 29 165
e 29 177
e 29 181
e 29 182
e 29 187
e 29 198
e 29 204
e 29 208
e 29 214
e 29 216
e 29 218
e 29 225
e 29 226
e 29 227
e 29 248
e 30 32
e 30 33
e 30 36
e 30 38
e 30 39
e 30 45
e 30 48
e 30 52
e 30 54
e 30 55
e 30 60
e 30 62
e 30 67
e 30 69
e 30 71
e 30 80
e 30 84
e 30 90
e 30 97
e 30 104
e 30 105
e 30 119
e 30 124
e 30 134
e 30 136
e 30 140
e 30 146
e 30 149
e 30 151
e 30 153
e 30 165
e 30 166
e 30 182
e 30 184
e 30 185
e 30 186
e 30 187
e 30 202
e 30 212
e 30 216
e 30 218
e 30 248
e 31 33
e 31 35
e 31 36
e 31 40
e 31 44
e 31 46
e 31 50
e 31 51
e 31 54
e 31 58
e 31 59
e 31 61
e 31 67
e 31 70
e 31 71
e 31 75
e 31 81
e 31 82
e 31 84
e 31 85
e 31 86
e 31 87
e 31 90
e 31 91
e 31 106
e 31 107
e 31 117
e 31 118
e 31 126
e 31 128
e 31 129
e 31 131
e 31 134
e 31 157
e 31 175
e 31 179
e 31 184
e 31 192
e 31 210
e 31 212
e 31 221
e 31 226
e 31 227
e 31 233
e 31 234
e 31 237
e 31 239
e 31 251
e 32 35
e 32 36
e 32 37
e 32 38
e 32 40
e 32 41
e 32 43
e 32 45
e 32 46
e 32 48
e 32 50
e 32 56
e 32 58
e 32 62
e 32 64
e 32 66
e 32 68
e 32 71
e 32 77
e 32 79
e 32 80
e 32 82
e 32 84
e 32 85
e 32 86
e 32 94
e 32 95
e 32 96
e 32 98
e 32 101
e 32 104
e 32 107
e 32 109
e 32 115
e 32 117
e 32 119
e 32 120
e 32 123
e 32 125
e 32 127
e 32 130
e 32 133
e 32 134
e 32 135
e 32 136
e 32 137
e 32 138
e 32 145
e 32 153
e 32 158
e 32 163
e 32 164
e 32 165
e 32 167
e 32 172
e 32 185
e 32 197
e 32 221
e 32 222
e 32 230
e 32 240
e 32 251
e 32 252
e 33 38
e 33 39
e 33 45
e 33 46
e 33 47
e 33 48
e 33 52
e 33 53
e 33 55
e 33 56
e 33 61
e 33 74
e 33 77
e 33 79
e 33 80
e 33 81
e 33 93
e 33 127
e 33 128
e 33 137
e 33 138
e 33 143
e 33 144
e 33 172
e 33 176
e 33 211
e 33 225
e 33 238
e 33 245
e 33 247
e 34 36
e 34 37
e 34 40
e 34 41
e 34 43
e 34 46
e 34 47
e 34 51
e 34 54
e 34 58
e 34 61
e 34 65
e 34 70
e 34 77
e 34 80
e 34 87
e 34 106
e 34 114
e 34 116
e 34 119
e 34 135
e 34 137
e 34 139
e 34 146
e 34 149
e 34 160
e 34 162
e 34 166
e 34 173
e 34 174
e 34 179
e 34 211
e 34 212
e 34 216
e 34 223
e 34 234
e 34 239
e 35 36
e 35 40
e 35 41
e 35 42
e 35 51
e 35 55
e 35 58
e 35 59
e 35 62
e 35 65
e 35 66
e 35 67
e 35 70
e 35 73
e 35 79
e 35 84
e 35 85
e 35 91
e 35 94
e 35 95
e 35 96
e 35 98
e 35 99
e 35 102
e 35 104
e 35 105
e 35 111
e 35 112
e 35 117
e 35 118
e 35 120
e 35 124
e 35 126
e 35 127
e 35 130
e 35 149
e 35 153
e 35 163
e 35 169
e 35 172
e 35 175
e 35 187
e 35 197
e 35 202
e 35 206
e 35 221
e 35 233
e 35 237
e 35 242
e 35 247
e 36 38
e 36 39
e 36 40
e 36 41
e 36 50
e 36 52
e 36 58
e 36 59
e 36 62
e 36 73
e 36 86
e 36 88
e 36 90
e 36 92
e 36 96
e 36 104
e 36 105
e 36 111
e 36 113
e 36 115
e 36 119
e 36 121
e 36 144
e 36 155
e 36 166
e 36 168
e 36 172
e 36 173
e 36 198
e 36 220
e 36 225
e 36 226
e 36 233
e 36 235
e 36 247
e 36 253
e 36 254
e 37 39
e 37 45
e 37 46
e 37 47
e 37 57
e 37 64
e 37 72
e 37 73
e 37 78
e 37 79
e 37 80
e 37 82
e 37 84
e 37 89
e 37 93
e 37 99
e 37 104
e 37 108
e 37 113
e 37 129
e 37 134
e 37 144
e 37 145
e 37 146
e 37 154
e 37 162
e 37 201
e 37 205
e 37 213
e 37 215
e 37 225
e 37 233
e 37 250
e 37 253
e 38 42
e 38 44
e 38 45
e 38 49
e 38 50
e 38 53
e 38 59
e 38 63
e 38 64
e 38 69
e 38 72
e 38 82
e 38 90
e 38 94
e 38 98
e 38 100
e 38 110
e 38 144
e 38 150
e 38 153
e 38 156
e 38 169
e 38 176
e 38 186
e 38 187
e 38 193
e 38 194
e 38 225
e 38 234
e 38 238
e 38 243
e 38 251
e 39 43
e 39 45
e 39 50
e 39 54
e 39 56
e 39 57
e 39 58
e 39 61
e 39 62
e 39 68
e 39 70
e 39 71
e 39 76
e 39 78
e 39 99
e 39 101
e 39 113
e 39 114
e 39 119
e 39 122
e 39 127
e 39 129
e 39 134
e 39 136
e 39 137
e 39 138
e 39 144
e 39 155
e 39 159
e 39 170
e 39 171
e 39 172
e 39 174
e 39 189
e 39 199
e 39 214
e 39 217
e 39 225
e 39 230
e 39 249
e 40 41
e 40 45
e 40 48
e 40 49
e 40 50
e 40 51
e 40 53
e 40 65
e 40 74
e 40 76
e 40 80
e 40 81
e 40 84
e 40 85
e 40 96
e 40 99
e 40 100
e 40 101
e 40 105
e 40 106
e 40 107
e 40 118
e 40 123
e 40 124
e 40 131
e 40 135
e 40 155
e 40 157
e 40 158
e 40 165
e 40 173
e 40 189
e 40 199
e 40 200
e 40 211
e 40 217
e 40 218
e 40 231
e 40 233
e 40 246
e 40 247
e 41 42
e 41 44
e 41 47
e 41 55
e 41 62
e 41 65
e 41 68
e 41 70
e 41 71
e 41 73
e 41 76
e 41 78
e 41 85
e 41 96
e 41 99
e 41 102
e 41 108
e 41 116
e 41 119
e 41 123
e 41 124
e 41 130
e 41 150
e 41 154
e 41 169
e 41 193
e 41 206
e 41 221
e 41 231
e 41 249
e 41 250
e 42 43
e 42 44
e 42 47
e 42 49
e 42 53
e 42 54
e 42 55
e 42 75
e 42 79
e 42 85
e 42 97
e 42 100
e 42 104
e 42 113
e 42 116
e 42 120
e 42 135
e 42 136
e 42 138
e 42 143
e 42 144
e 42 151
e 42 152
e 42 163
e 42 172
e 42 179
e 42 183
e 42 187
e 42 191
e 42 196
e 42 216
e 42 220
e 42 226
e 42 227
e 42 232
e 42 237
e 43 44
e 43 53
e 43 60
e 43 64
e 43 72
e 43 74
e 43 79
e 43 91
e 43 99
e 43 104
e 43 106
e 43 114
e 43 130
e 43 133
e 43 148
e 43 156
e 43 157
e 43 160
e 43 166
e 43 169
e 43 173
e 43 184
e 43 196
e 43 217
e 43 236
e 44 47
e 44 48
e 44 57
e 44 61
e 44 78
e 44 79
e 44 81
e 44 90
e 44 100
e 44 109
e 44 121
e 44 133
e 44 159
e 44 161
e 44 165
e 44 175
e 44 188
e 44 208
e 44 223
e 44 228
e 44 236
e 44 244
e 45 50
e 45 51
e 45 53
e 45 58
e 45 68
e 45 80
e 45 86
e 45 90
e 45 91
e 45 101
e 45 115
e 45 125
e 45 131
e 45 150
e 45 167
e 45 175
e 45 183
e 45 205
e 45 218
e 45 220
e 45 228
e 45 236
e 46 47
e 46 52
e 46 65
e 46 67
e 46 68
e 46 72
e 46 75
e 46 79
e 46 81
e 46 84
e 46 89
e 46 93
e 46 94
e 46 99
e 46 102
e 46 104
e 46 106
e 46 112
e 46 116
e 46 124
e 46 126
e 46 127
e 46 154
e 46 158
e 46 163
e 46 164
e 46 168
e 46 176
e 46 182
e 46 183
e 46 201
e 46 219
e 46 228
e 46 229
e 46 231
e 46 235
e 46 243
e 47 49
e 47 50
e 47 54
e 47 59
e 47 61
e 47 65
e 47 70
e 47 73
e 47 83
e 47 90
e 47 92
e 47 93
e 47 94
e 47 95
e 47 98
e 47 102
e 47 110
e 47 115
e 47 118
e 47 121
e 47 126
e 47 127
e 47 130
e 47 134
e 47 139
e 47 145
e 47 148
e 47 149
e 47 152
e 47 153
e 47 154
e 47 156
e 47 158
e 47 182
e 47 189
e 47 198
e 47 201
e 47 202
e 47 203
e 47 207
e 47 209
e 47 213
e 47 214
e 47 219
e 47 228
e 47 234
e 47 253
e 47 254
e 48 56
e 48 67
e 48 68
e 48 71
e 48 83
e 48 92
e 48 101
e 48 103
e 48 138
e 48 141
e 48 200
e 48 202
e 48 207
e 48 214
e 48 227
e 48 246
e 48 249
e 48 254
e 49 50
e 49 52
e 49 53
e 49 58
e 49 71
e 49 77
e 49 83
e 49 92
e 49 98
e 49 106
e 49 125
e 49 136
e 49 137
e 49 143
e 49 154
e 49 156
e 49 162
e 49 172
e 49 182
e 49 186
e 49 191
e 49 194
e 49 196
e 49 213
e 49 224
e 49 228
e 49 229
e 49 236
e 49 238
e 50 55
e 50 60
e 50 69
e 50 77
e 50 92
e 50 97
e 50 102
e 50 109
e 50 114
e 50 116
e 50 123
e 50 136
e 50 155
e 50 180
e 50 189
e 50 206
e 50 237
e 50 241
e 51 52
e 51 56
e 51 57
e 51 74
e 51 76
e 51 85
e 51 88
e 51 91
e 51 94
e 51 100
e 51 109
e 51 124
e 51 125
e 51 141
e 51 157
e 51 158
e 51 159
e 51 160
e 51 166
e 51 168
e 51 170
e 51 180
e 51 191
e 51 193
e 51 201
e 51 207
e 51 211
e 51 237
e 52 53
e 52 60
e 52 62
e 52 66
e 52 71
e 52 74
e 52 75
e 52 76
e 52 83
e 52 87
e 52 89
e 52 100
e 52 101
e 52 108
e 52 112
e 52 114
e 52 118
e 52 135
e 52 139
e 52 140
e 52 146
e 52 149
e 52 150
e 52 156
e 52 157
e 52 158
e 52 167
e 52 171
e 52 174
e 52 177
e 52 194
e 52 196
e 52 198
e 52 199
e 52 201
e 52 212
e 52 213
e 52 216
e 52 220
e 52 227
e 52 233
e 52 238
e 52 239
e 52 240
e 52 241
e 52 247
e 52 250
e 52 254
e 53 63
e 53 67
e 53 68
e 53 69
e 53 76
e 53 82
e 53 92
e 53 98
e 53 107
e 53 122
e 53 127
e 53 131
e 53 140
e 53 146
e 53 167
e 53 177
e 53 182
e 53 184
e 53 188
e 53 191
e 53 203
e 53 229
e 54 56
e 54 59
e 54 62
e 54 63
e 54 65
e 54 66
e 54 69
e 54 70
e 54 71
e 54 73
e 54 75
e 54 79
e 54 80
e 54 82
e 54 83
e 54 85
e 54 86
e 54 92
e 54 93
e 54 99
e 54 103
e 54 105
e 54 111
e 54 114
e 54 115
e 54 118
e 54 121
e 54 122
e 54 125
e 54 143
e 54 146
e 54 154
e 54 176
e 54 183
e 54 188
e 54 190
e 54 191
e 54 197
e 54 200
e 54 210
e 54 232
e 54 253
e 55 56
e 55 59
e 55 65
e 55 66
e 55 72
e 55 80
e 55 87
e 55 97
e 55 142
e 55 151
e 55 152
e 55 167
e 55 168
e 55 173
e 55 181
e 55 206
e 55 211
e 55 216
e 55 219
e 55 220
e 55 221
e 55 223
e 55 225
e 56 63
e 56 64
e 56 67
e 56 86
e 56 90
e 56 98
e 56 110
e 56 117
e 56 122
e 56 126
e 56 133
e 56 153
e 56 164
e 56 170
e 56 179
e 56 183
e 56 197
e 56 204
e 56 216
e 56 223
e 57 64
e 57 70
e 57 72
e 57 78
e 57 83
e 57 91
e 57 95
e 57 98
e 57 112
e 57 129
e 57 131
e 57 133
e 57 135
e 57 142
e 57 144
e 57 155
e 57 156
e 57 160
e 57 161
e 57 165
e 57 168
e 57 174
e 57 186
e 57 206
e 57 230
e 57 245
e 58 62
e 58 64
e 58 69
e 58 73
e 58 98
e 58 102
e 58 110
e 58 119
e 58 133
e 58 140
e 58 141
e 58 143
e 58 148
e 58 150
e 58 217
e 58 219
e 58 222
e 58 227
e 58 230
e 58 231
e 59 77
e 59 80
e 59 81
e 59 83
e 59 84
e 59 93
e 59 94
e 59 108
e 59 117
e 59 120
e 59 121
e 59 132
e 59 141
e 59 177
e 59 179
e 59 205
e 59 215
e 59 220
e 59 225
e 59 239
e 59 248
e 59 250
e 60 69
e 60 75
e 60 78
e 60 81
e 60 88
e 60 94
e 60 102
e 60 126
e 60 144
e 60 146
e 60 185
e 60 230
e 60 234
e 60 235
e 61 63
e 61 68
e 61 87
e 61 91
e 61 92
e 61 105
e 61 107
e 61 111
e 61 120
e 61 123
e 61 134
e 61 141
e 61 142
e 61 143
e 61 146
e 61 147
e 61 196
e 61 212
e 61 219
e 61 236
e 61 239
e 61 246
e 61 248
e 61 251
e 62 63
e 62 102
e 62 123
e 62 137
e 62 141
e 62 142
e 62 172
e 62 175
e 62 177
e 62 184
e 62 199
e 62 214
e 62 241
e 62 246
e 63 66
e 63 67
e 63 77
e 63 78
e 63 80
e 63 81
e 63 84
e 63 87
e 63 89
e 63 91
e 63 99
e 63 107
e 63 115
e 63 117
e 63 122
e 63 132
e 63 133
e 63 142
e 63 148
e 63 151
e 63 192
e 63 202
e 63 213
e 63 217
e 63 226
e 63 237
e 63 242
e 63 249
e 63 252
e 64 70
e 64 76
e 64 78
e 64 85
e 64 88
e 64 90
e 64 100
e 64 104
e 64 108
e 64 111
e 64 120
e 64 139
e 64 142
e 64 147
e 64 158
e 64 179
e 64 182
e 64 185
e 64 187
e 64 200
e 64 217
e 64 222
e 64 235
e 64 237
e 64 253
e 65 71
e 65 72
e 65 79
e 65 92
e 65 101
e 65 105
e 65 117
e 65 121
e 65 123
e 65 128
e 65 146
e 65 147
e 65 150
e 65 152
e 65 154
e 65 162
e 65 166
e 65 183
e 65 186
e 65 195
e 65 196
e 65 197
e 65 206
e 65 219
e 65 227
e 65 237
e 65 252
e 66 78
e 66 88
e 66 100
e 66 110
e 66 111
e 66 112
e 66 113
e 66 117
e 66 118
e 66 124
e 66 132
e 66 142
e 66 147
e 66 153
e 66 157
e 66 158
e 66 161
e 66 162
e 66 169
e 66 195
e 66 212
e 66 215
e 66 223
e 66 236
e 66 254
e 67 77
e 67 78
e 67 104
e 67 112
e 67 115
e 67 120
e 67 125
e 67 136
e 67 140
e 67 143
e 67 151
e 67 155
e 67 158
e 67 160
e 67 161
e 67 164
e 67 178
e 67 179
e 67 180
e 67 191
e 67 214
e 67 240
e 68 69
e 68 72
e 68 73
e 68 74
e 68 78
e 68 99
e 68 119
e 68 137
e 68 170
e 68 207
e 68 210
e 68 214
e 68 223
e 68 226
e 69 73
e 69 77
e 69 87
e 69 89
e 69 92
e 69 95
e 69 101
e 69 103
e 69 108
e 69 136
e 69 139
e 69 149
e 69 163
e 69 173
e 69 174
e 69 176
e 69 178
e 69 181
e 69 182
e 69 184
e 69 191
e 69 198
e 69 203
e 69 204
e 69 226
e 69 229
e 69 230
e 69 234
e 69 236
e 69 254
e 70 73
e 70 76
e 70 81
e 70 94
e 70 95
e 70 99
e 70 112
e 70 139
e 70 155
e 70 175
e 70 177
e 70 202
e 70 219
e 70 246
e 71 75
e 71 83
e 71 88
e 71 89
e 71 111
e 71 113
e 71 116
e 71 124
e 71 128
e 71 130
e 71 145
e 71 162
e 71 177
e 71 182
e 71 193
e 71 201
e 71 209
e 71 210
e 72 76
e 72 81
e 72 86
e 72 87
e 72 88
e 72 99
e 72 114
e 72 116
e 72 125
e 72 138
e 72 143
e 72 147
e 72 152
e 72 159
e 72 161
e 72 165
e 72 179
e 72 180
e 72 192
e 72 213
e 72 221
e 72 229
e 72 252
e 73 82
e 73 103
e 73 105
e 73 113
e 73 119
e 73 130
e 73 136
e 73 140
e 73 166
e 73 167
e 73 170
e 73 171
e 73 174
e 73 187
e 73 188
e 73 229
e 73 235
e 74 75
e 74 82
e 74 89
e 74 110
e 74 111
e 74 112
e 74 123
e 74 129
e 74 145
e 74 168
e 74 195
e 74 196
e 74 208
e 74 215
e 74 218
e 74 229
e 74 238
e 74 246
e 74 248
e 75 91
e 75 97
e 75 98
e 75 103
e 75 131
e 75 132
e 75 138
e 75 142
e 75 152
e 75 173
e 75 176
e 75 182
e 75 193
e 75 210
e 75 217
e 75 222
e 75 224
e 75 228
e 76 78
e 76 81
e 76 93
e 76 98
e 76 101
e 76 128
e 76 131
e 76 133
e 76 143
e 76 184
e 76 200
e 76 207
e 76 229
e 76 233
e 77 89
e 77 90
e 77 112
e 77 114
e 77 132
e 77 137
e 77 144
e 77 153
e 77 164
e 77 168
e 77 189
e 77 196
e 77 197
e 77 213
e 77 214
e 77 236
e 77 239
e 77 251
e 78 84
e 78 88
e 78 93
e 78 108
e 78 109
e 78 127
e 78 129
e 78 137
e 78 138
e 78 140
e 78 152
e 78 159
e 78 171
e 78 174
e 78 186
e 78 195
e 78 209
e 78 215
e 78 229
e 79 85
e 79 96
e 79 97
e 79 100
e 79 114
e 79 118
e 79 122
e 79 124
e 79 125
e 79 126
e 79 128
e 79 140
e 79 151
e 79 153
e 79 164
e 79 172
e 79 173
e 79 176
e 79 178
e 79 194
e 79 204
e 79 226
e 79 232
e 79 252
e 80 83
e 80 86
e 80 90
e 80 93
e 80 96
e 80 117
e 80 120
e 80 160
e 80 164
e 80 247
e 81 82
e 81 108
e 81 128
e 81 130
e 81 138
e 81 146
e 81 157
e 81 170
e 81 176
e 81 177
e 81 182
e 81 183
e 81 204
e 81 216
e 81 223
e 81 226
e 81 251
e 82 84
e 82 109
e 82 112
e 82 116
e 82 126
e 82 127
e 82 139
e 82 149
e 82 158
e 82 183
e 82 211
e 82 237
e 82 241
e 83 85
e 83 89
e 83 120
e 83 122
e 83 137
e 83 145
e 83 148
e 83 155
e 83 178
e 83 181
e 83 199
e 83 222
e 83 231
e 83 245
e 84 86
e 84 119
e 84 137
e 84 146
e 84 159
e 84 174
e 84 180
e 84 183
e 84 205
e 84 242
e 85 87
e 85 91
e 85 115
e 85 123
e 85 140
e 85 161
e 85 163
e 85 165
e 85 167
e 85 177
e 85 194
e 85 208
e 85 213
e 85 227
e 86 89
e 86 92
e 86 96
e 86 113
e 86 149
e 86 153
e 86 167
e 86 170
e 86 171
e 86 198
e 86 202
e 86 211
e 86 222
e 86 236
e 86 240
e 86 249
e 86 252
e 87 103
e 87 118
e 87 155
e 87 167
e 87 178
e 87 211
e 87 220
e 87 251
e 88 97
e 88 107
e 88 133
e 88 144
e 88 208
e 88 245
e 89 91
e 89 95
e 89 100
e 89 109
e 89 116
e 89 119
e 89 121
e 89 135
e 89 141
e 89 144
e 89 185
e 89 189
e 89 192
e 89 238
e 89 239
e 90 92
e 90 96
e 90 107
e 90 115
e 90 117
e 90 123
e 90 125
e 90 145
e 90 147
e 90 159
e 90 160
e 90 163
e 90 164
e 90 173
e 90 176
e 90 181
e 90 227
e 90 229
e 90 232
e 90 247
e 91 92
e 91 98
e 91 104
e 91 110
e 91 148
e 91 150
e 91 161
e 91 175
e 91 193
e 91 199
e 91 206
e 91 253
e 92 94
e 92 97
e 92 112
e 92 117
e 92 129
e 92 130
e 92 145
e 92 148
e 92 152
e 92 164
e 92 166
e 92 195
e 92 196
e 92 244
e 93 95
e 93 103
e 93 115
e 93 212
e 93 232
e 93 240
e 94 106
e 94 120
e 94 128
e 94 132
e 94 134
e 94 135
e 94 144
e 94 151
e 94 178
e 94 192
e 94 220
e 94 230
e 94 231
e 94 242
e 94 243
e 94 250
e 94 253
e 95 104
e 95 109
e 95 170
e 95 208
e 95 215
e 95 226
e 95 240
e 95 243
e 95 248
e 96 119
e 96 136
e 96 138
e 96 159
e 96 176
e 96 218
e 96 224
e 96 235
e 96 241
e 96 254
e 97 100
e 97 109
e 97 124
e 97 132
e 97 151
e 97 161
e 97 162
e 97 163
e 97 178
e 97 186
e 97 206
e 97 213
e 97 229
e 98 104
e 98 116
e 98 124
e 98 191
e 98 196
e 98 218
e 98 222
e 99 107
e 99 111
e 99 122
e 99 135
e 99 149
e 99 166
e 99 168
e 99 180
e 99 189
e 99 206
e 99 234
e 99 242
e 100 111
e 100 125
e 100 132
e 100 133
e 100 134
e 100 140
e 100 156
e 100 159
e 100 161
e 100 175
e 100 177
e 100 179
e 100 190
e 100 200
e 100 203
e 100 215
e 100 219
e 100 222
e 100 226
e 100 234
e 100 244
e 101 107
e 101 108
e 101 121
e 101 123
e 101 126
e 101 134
e 101 135
e 101 147
e 101 148
e 101 150
e 101 162
e 101 173
e 101 186
e 101 206
e 101 238
e 102 128
e 102 131
e 102 150
e 102 155
e 102 216
e 102 234
e 102 245
e 102 248
e 103 133
e 103 138
e 103 191
e 103 212
e 103 218
e 104 111
e 104 118
e 104 128
e 104 149
e 104 153
e 104 170
e 104 230
e 104 241
e 105 106
e 105 108
e 105 113
e 105 118
e 105 121
e 105 126
e 105 150
e 105 175
e 105 189
e 105 210
e 105 242
e 105 243
e 106 110
e 106 112
e 106 130
e 106 143
e 106 152
e 106 154
e 106 155
e 106 159
e 106 189
e 106 192
e 106 209
e 106 211
e 106 220
e 106 235
e 107 110
e 107 112
e 107 122
e 107 132
e 107 143
e 107 185
e 107 186
e 107 192
e 107 200
e 107 203
e 107 224
e 108 110
e 108 127
e 108 132
e 108 150
e 108 164
e 108 178
e 108 214
e 108 224
e 109 115
e 109 122
e 109 128
e 109 133
e 109 139
e 109 171
e 109 182
e 110 125
e 110 129
e 110 152
e 110 156
e 110 160
e 110 240
e 111 132
e 111 145
e 111 149
e 111 190
e 111 245
e 112 138
e 112 146
e 112 148
e 112 153
e 112 167
e 112 204
e 112 205
e 113 134
e 113 154
e 113 155
e 113 166
e 113 183
e 113 193
e 113 198
e 113 229
e 113 244
e 113 247
e 114 161
e 114 172
e 114 175
e 114 198
e 114 236
e 115 152
e 115 167
e 115 179
e 115 184
e 115 199
e 115 234
e 115 239
e 116 118
e 116 128
e 116 131
e 116 142
e 116 145
e 116 165
e 116 190
e 116 203
e 116 224
e 116 236
e 117 126
e 117 138
e 117 140
e 117 144
e 117 145
e 117 178
e 117 190
e 117 232
e 117 245
e 118 119
e 118 122
e 118 169
e 118 176
e 118 180
e 118 214
e 118 249
e 119 129
e 119 133
e 119 139
e 119 162
e 119 174
e 119 186
e 119 202
e 119 213
e 119 215
e 119 224
e 119 231
e 120 121
e 120 131
e 120 135
e 120 152
e 120 176
e 120 185
e 120 209
e 120 210
e 120 218
e 120 238
e 121 124
e 121 148
e 121 156
e 121 158
e 121 163
e 121 165
e 121 171
e 121 175
e 121 181
e 121 191
e 121 192
e 121 194
e 121 196
e 121 213
e 121 217
e 121 245
e 121 250
e 122 134
e 122 142
e 122 157
e 122 189
e 122 208
e 122 242
e 122 246
e 123 137
e 123 142
e 123 200
e 123 203
e 123 232
e 123 234
e 124 150
e 124 168
e 124 171
e 124 180
e 124 205
e 125 130
e 125 134
e 125 135
e 125 156
e 125 160
e 125 162
e 125 184
e 125 218
e 125 237
e 126 141
e 126 143
e 126 157
e 126 160
e 126 165
e 126 171
e 126 181
e 126 189
e 126 190
e 127 133
e 127 143
e 127 168
e 127 178
e 127 187
e 127 195
e 127 231
e 128 169
e 128 171
e 128 196
e 128 200
e 129 227
e 130 171
e 130 241
e 130 249
e 131 133
e 131 139
e 131 146
e 131 155
e 131 161
e 131 166
e 131 168
e 131 172
e 131 174
e 131 175
e 131 223
e 131 232
e 131 245
e 132 136
e 132 148
e 132 153
e 132 155
e 132 157
e 132 163
e 132 182
e 132 231
e 132 233
e 133 179
e 133 185
e 133 199
e 133 200
e 133 239
e 133 243
e 133 248
e 133 249
e 134 136
e 134 188
e 134 213
e 135 185
e 135 208
e 135 214
e 135 225
e 136 158
e 136 179
e 136 190
e 136 195
e 136 205
e 136 209
e 137 180
e 137 193
e 137 203
e 137 210
e 137 221
e 137 228
e 137 230
e 137 239
e 138 151
e 138 164
e 138 175
e 138 181
e 138 185
e 138 190
e 138 195
e 138 204
e 138 210
e 138 215
e 138 223
e 138 234
e 138 240
e 138 248
e 139 163
e 139 204
e 139 215
e 139 219
e 139 220
e 140 147
e 140 159
e 140 160
e 140 167
e 140 217
e 140 244
e 141 147
e 141 159
e 141 163
e 141 168
e 141 188
e 141 197
e 141 216
e 141 219
e 141 228
e 141 241
e 141 242
e 141 251
e 142 153
e 142 163
e 142 187
e 142 211
e 142 221
e 142 244
e 142 253
e 143 213
e 143 217
e 143 224
e 143 242
e 143 243
e 144 147
e 144 151
e 144 156
e 144 158
e 144 191
e 144 192
e 144 209
e 144 236
e 144 238
e 144 250
e 145 157
e 145 193
e 145 244
e 146 182
e 146 209
e 146 216
e 146 240
e 146 249
e 146 254
e 147 149
e 147 163
e 147 186
e 147 189
e 147 190
e 147 192
e 147 241
e 147 245
e 148 155
e 148 168
e 148 179
e 148 199
e 148 212
e 148 217
e 148 223
e 149 151
e 149 193
e 149 200
e 149 201
e 149 203
e 149 218
e 149 247
e 150 170
e 150 180
e 150 192
e 150 194
e 150 203
e 150 220
e 151 176
e 151 185
e 151 187
e 151 189
e 151 238
e 152 156
e 152 167
e 152 168
e 152 238
e 152 242
e 153 166
e 153 171
e 153 187
e 153 201
e 153 202
e 153 216
e 153 254
e 154 156
e 154 175
e 154 200
e 154 201
e 154 203
e 154 236
e 154 248
e 155 159
e 155 197
e 155 247
e 156 167
e 156 194
e 156 216
e 156 242
e 157 169
e 157 193
e 157 203
e 157 225
e 157 247
e 158 165
e 158 169
e 158 196
e 158 199
e 158 219
e 158 244
e 159 164
e 159 166
e 159 190
e 159 193
e 159 194
e 159 203
e 159 204
e 159 205
e 159 209
e 159 246
e 160 184
e 160 190
e 160 202
e 160 207
e 160 218
e 160 219
e 161 163
e 161 181
e 161 198
e 161 208
e 161 215
e 161 220
e 162 164
e 162 167
e 162 170
e 162 173
e 162 178
e 162 180
e 162 184
e 162 198
e 162 204
e 162 228
e 162 231
e 162 249
e 163 169
e 163 186
e 163 190
e 163 199
e 163 209
e 164 169
e 164 187
e 164 195
e 164 207
e 164 216
e 164 229
e 165 169
e 165 188
e 165 210
e 165 223
e 165 231
e 165 235
e 166 182
e 166 205
e 166 230
e 166 232
e 166 243
e 166 254
e 167 170
e 167 181
e 167 192
e 167 207
e 167 222
e 168 172
e 168 175
e 168 191
e 168 203
e 168 205
e 168 241
e 169 173
e 169 243
e 169 252
e 170 195
e 170 206
e 170 220
e 170 225
e 171 178
e 172 198
e 172 222
e 172 240
e 173 176
e 173 209
e 173 239
e 174 185
e 175 180
e 175 183
e 175 250
e 176 188
e 176 198
e 176 204
e 176 212
e 176 230
e 176 241
e 176 252
e 177 216
e 178 184
e 178 197
e 178 253
e 179 188
e 179 232
e 180 184
e 180 192
e 180 201
e 180 223
e 180 233
e 180 235
e 181 214
e 182 240
e 183 198
e 183 205
e 183 207
e 183 212
e 183 224
e 183 252
e 184 185
e 184 186
e 184 193
e 185 194
e 185 224
e 185 245
e 186 194
e 186 212
e 186 248
e 187 188
e 187 192
e 187 194
e 187 195
e 187 207
e 187 225
e 187 227
e 187 243
e 187 244
e 188 190
e 188 222
e 189 196
e 189 217
e 190 218
e 190 219
e 190 221
e 190 225
e 190 233
e 192 194
e 192 228
e 192 237
e 193 203
e 193 223
e 193 240
e 193 246
e 194 232
e 194 244
e 194 246
e 195 201
e 195 207
e 195 217
e 195 229
e 196 219
e 196 226
e 196 254
e 197 202
e 197 215
e 197 233
e 197 235
e 198 201
e 198 205
e 199 210
e 199 240
e 199 246
e 200 202
e 200 231
e 200 251
e 201 209
e 201 223
e 201 228
e 201 245
e 202 205
e 202 251
e 203 208
e 203 221
e 203 230
e 204 211
e 204 244
e 205 237
e 206 210
e 206 214
e 206 225
e 207 227
e 207 234
e 207 239
e 208 221
e 208 224
e 208 228
e 208 239
e 208 250
e 209 234
e 210 211
e 211 243
e 212 222
e 212 226
e 212 229
e 212 236
e 212 254
e 213 228
e 213 232
e 214 222
e 214 241
e 215 230
e 215 236
e 216 247
e 216 248
e 216 250
e 217 220
e 218 242
e 219 244
e 219 248
e 220 251
e 221 227
e 221 232
e 221 242
e 221 252
e 222 224
e 222 239
e 222 247
e 222 250
e 223 224
e 225 239
e 226 246
e 228 249
e 229 238
e 229 240
e 231 235
e 233 250
e 233 251
e 234 241
e 234 242
e 234 246
e 236 251
e 237 252
e 238 248
e 240 252
e 244 250
e 247 253
e 253 254
